certificates/rado_a11_c75_N24.cnf
c Rad2 upper bound instance: x1 + 11*x2 - x3 = 75, interval [1,24]
p cnf 24 104
1 3 7 0
-1 -3 -7 0
1 8 14 0
-1 -8 -14 0
2 4 7 0
-2 -4 -7 0
2 8 15 0
-2 -8 -15 0
3 5 7 0
-3 -5 -7 0
3 8 16 0
-3 -8 -16 0
4 6 7 0
-4 -6 -7 0
4 8 17 0
-4 -8 -17 0
5 7 0
-5 -7 0
5 8 18 0
-5 -8 -18 0
6 7 8 0
-6 -7 -8 0
6 8 19 0
-6 -8 -19 0
7 9 0
-7 -9 0
7 8 20 0
-7 -8 -20 0
7 8 10 0
-7 -8 -10 0
8 21 0
-8 -21 0
7 9 11 0
-7 -9 -11 0
8 9 22 0
-8 -9 -22 0
1 6 10 0
-1 -6 -10 0
7 10 12 0
-7 -10 -12 0
8 10 23 0
-8 -10 -23 0
2 6 11 0
-2 -6 -11 0
7 11 13 0
-7 -11 -13 0
8 11 24 0
-8 -11 -24 0
3 6 12 0
-3 -6 -12 0
7 12 14 0
-7 -12 -14 0
4 6 13 0
-4 -6 -13 0
7 13 15 0
-7 -13 -15 0
5 6 14 0
-5 -6 -14 0
7 14 16 0
-7 -14 -16 0
6 15 0
-6 -15 0
7 15 17 0
-7 -15 -17 0
6 7 16 0
-6 -7 -16 0
7 16 18 0
-7 -16 -18 0
6 8 17 0
-6 -8 -17 0
7 17 19 0
-7 -17 -19 0
6 9 18 0
-6 -9 -18 0
7 18 20 0
-7 -18 -20 0
6 10 19 0
-6 -10 -19 0
7 19 21 0
-7 -19 -21 0
6 11 20 0
-6 -11 -20 0
7 20 22 0
-7 -20 -22 0
1 5 21 0
-1 -5 -21 0
6 12 21 0
-6 -12 -21 0
7 21 23 0
-7 -21 -23 0
2 5 22 0
-2 -5 -22 0
6 13 22 0
-6 -13 -22 0
7 22 24 0
-7 -22 -24 0
3 5 23 0
-3 -5 -23 0
6 14 23 0
-6 -14 -23 0
4 5 24 0
-4 -5 -24 0
6 15 24 0
-6 -15 -24 0
