certificates/rado_a11_c75_N24.drat
-22 -24 0
d -22 -7 -24 0
7 -23 -24 0
-23 -24 0
d 7 -23 -24 0
-7 -24 0
-24 0
7 0
-5 0
-9 0
4 0
-2 0
-6 0
22 0
11 0
14 0
15 0
18 0
-20 0
-13 0
-16 0
-12 0
-17 0
21 0
3 0
8 0
0
